(declare-const delta_k Int)
(declare-const delta_j Int)
(assert (exists
         ((|k'?1| Int) (K?2 Int) (|k'?3| Int) (|j'?4| Int) (N_LIN?5 Int)
            (k?6 Int) (N_COL?7 Int) (j?8 Int))
         (and (<= (- N_LIN?5) 0) (<= (- N_COL?7) 0) (<= (- j?8) 0)
                (<= (+ j?8 (- N_COL?7) 1) 0) (= (+ |k'?1| (- K?2)) 0)
                (or (and (= K?2 0) (= (- |k'?1|) 0))
                      (and (<= (+ (- K?2) 1) 0) (<= (+ (- N_LIN?5) 1) 0)
                             (<= (+ (- |k'?1|) 1) 0)
                             (<= (+ |k'?1| (- N_LIN?5)) 0))) (<= (- K?2) 0)
                (<= (- N_LIN?5) 0) (<= (- |k'?1|) 0)
                (<= (+ (- |k'?1|) N_LIN?5) 0) (= (+ |k'?3| (- |k'?1|)) 0)
                (= (+ |j'?4| (- j?8) -1) 0) (= delta_j (+ |j'?4| (- j?8)))
                (= delta_k (+ |k'?3| (- k?6))))))
(check-sat)
